50
    75    65    62    48     9    89    72    88    57    68    21    99    27    76    49    48    21    99    42    71    29    43    21    65    32    27    52    96     2    86    38    94     2    71    26    56    85    49     2    43    96     2    91    84    67    26    62    70    25    37
     7    10     6     9     5     1     8     9     9     3     6     7     1     8     1     8    10     8     5     3    10     6     4     6     3     2     6    10     1     9     9     6     9     6     6     8     1     5    10     6    10     4     8     2     2     6     8     7     5     9
   760  1571  1176   658  1436   575  1195   798   737  1294  1387  1168  1103  1492  1035  1062  1001  1015   733   636   828  1355  1085  1276   805  1487   873  1171  1547   634  1088  1002   898  1564   967   585   894   565   954  1366  1399  1399   874   924   670  1017   759   799   725  1378
